\Generated by Cardinal Operations

Maximize
   1477.78 x_('A','B')13:55_f + 464.67 x_('A','B')13:55_l 
   + 1462.84 x_('B','A')20:25_f + 423.5 x_('B','A')20:25_l 
   + 1475.99 x_('B','A')15:40_f + 444.2 x_('B','A')15:40_l 
   + 1484.6 x_('C','B')7:40_f + 450.8 x_('C','B')7:40_l 
   + 1475.07 x_('A','B')17:05_f + 461.18 x_('A','B')17:05_l 
   + 1638.05 x_('C','A')14:15_f + 531.5 x_('C','A')14:15_l 
   + 1510.9 x_('C','B')14:15_f + 496.51 x_('C','B')14:15_l 
   + 1520.65 x_('B','C')12:25_f + 596.4400000000001 x_('B','C')12:25_l 
   + 1583 x_('C','B')16:55_f + 558.48 x_('C','B')16:55_l 
   + 1466.01 x_('A','B')19:10_f + 433.96 x_('A','B')19:10_l 
   + 1665.33 x_('C','A')16:55_f + 493.28 x_('C','A')16:55_l 
   + 1455.47 x_('A','B')22:45_f + 436.14 x_('A','B')22:45_l 
   + 1464.07 x_('A','B')11:20_f + 441.88 x_('A','B')11:20_l 
   + 1467.29 x_('A','B')12:40_f + 505.8 x_('A','B')12:40_l 
   + 1480.24 x_('B','A')14:25_f + 470.65 x_('B','A')14:25_l 
   + 1669.65 x_('A','C')15:45_f + 506.95 x_('A','C')15:45_l 
   + 1489.26 x_('B','C')9:05_f + 443.62 x_('B','C')9:05_l 
   + 1663.16 x_('A','C')13:05_f + 565.96 x_('A','C')13:05_l 
   + 1670.39 x_('A','C')17:25_f + 473.92 x_('A','C')17:25_l 
   + 1462.12 x_('B','A')18:50_f + 447.25 x_('B','A')18:50_l 
   + 1544.13 x_('B','C')15:40_f + 483.3 x_('B','C')15:40_l 
Subject To
 capacity_constraint_('A','B')13:55: 1.2 x_('A','B')13:55_f 
   + x_('A','B')13:55_l <= 187
 balance_constraint_('A','B')13:55: 4.92 x_('A','B')13:55_0 
   + 0.72 x_('A','B')13:55_f + 0.72 x_('A','B')13:55_l <= 170.64
 scale_constraint_('A','B')13:55_f: 2.803 x_('A','B')13:55_0 
   - 0.9 x_('A','B')13:55_f >= 0
 scale_constraint_('A','B')13:55_l: 1.367 x_('A','B')13:55_0 
   - 0.9 x_('A','B')13:55_l >= 0
 capacity_constraint_('B','A')20:25: 1.2 x_('B','A')20:25_f 
   + x_('B','A')20:25_l <= 187
 balance_constraint_('B','A')20:25: 3.7 x_('B','A')20:25_0 
   + 0.9 x_('B','A')20:25_f + 0.9 x_('B','A')20:25_l <= 181.08
 scale_constraint_('B','A')20:25_f: 2.411 x_('B','A')20:25_0 
   - 2 x_('B','A')20:25_f >= 0
 scale_constraint_('B','A')20:25_l: 1.293 x_('B','A')20:25_0 
   - 2 x_('B','A')20:25_l >= 0
 capacity_constraint_('B','A')15:40: 1.2 x_('B','A')15:40_f 
   + x_('B','A')15:40_l <= 187
 balance_constraint_('B','A')15:40: 3.7 x_('B','A')15:40_0 
   + 0.9 x_('B','A')15:40_f + 0.9 x_('B','A')15:40_l <= 167.42
 scale_constraint_('B','A')15:40_f: 3.079 x_('B','A')15:40_0 
   - 2 x_('B','A')15:40_f >= 0
 scale_constraint_('B','A')15:40_l: 1.652 x_('B','A')15:40_0 
   - 2 x_('B','A')15:40_l >= 0
 capacity_constraint_('C','B')7:40: 1.2 x_('C','B')7:40_f 
   + x_('C','B')7:40_l <= 187
 balance_constraint_('C','B')7:40: 1.72 x_('C','B')7:40_0 
   + 0.97 x_('C','B')7:40_f + 0.97 x_('C','B')7:40_l <= 26.89
 scale_constraint_('C','B')7:40_f: 2.16 x_('C','B')7:40_0 
   - 1.2 x_('C','B')7:40_f >= 0
 scale_constraint_('C','B')7:40_l: 1.127 x_('C','B')7:40_0 
   - 1.2 x_('C','B')7:40_l >= 0
 capacity_constraint_('A','B')17:05: 1.2 x_('A','B')17:05_f 
   + x_('A','B')17:05_l <= 187
 balance_constraint_('A','B')17:05: 4.92 x_('A','B')17:05_0 
   + 0.72 x_('A','B')17:05_f + 0.72 x_('A','B')17:05_l <= 179.5
 scale_constraint_('A','B')17:05_f: 2.803 x_('A','B')17:05_0 
   - 0.9 x_('A','B')17:05_f >= 0
 scale_constraint_('A','B')17:05_l: 1.367 x_('A','B')17:05_0 
   - 0.9 x_('A','B')17:05_l >= 0
 capacity_constraint_('C','A')14:15: 1.2 x_('C','A')14:15_f 
   + x_('C','A')14:15_l <= 187
 balance_constraint_('C','A')14:15: 1.72 x_('C','A')14:15_0 
   + 0.97 x_('C','A')14:15_f + 0.97 x_('C','A')14:15_l <= 109.5
 scale_constraint_('C','A')14:15_f: 2.826 x_('C','A')14:15_0 
   - 1.2 x_('C','A')14:15_f >= 0
 scale_constraint_('C','A')14:15_l: 1.475 x_('C','A')14:15_0 
   - 1.2 x_('C','A')14:15_l >= 0
 capacity_constraint_('C','B')14:15: 1.2 x_('C','B')14:15_f 
   + x_('C','B')14:15_l <= 187
 balance_constraint_('C','B')14:15: 1.72 x_('C','B')14:15_0 
   + 0.97 x_('C','B')14:15_f + 0.97 x_('C','B')14:15_l <= 39.64
 scale_constraint_('C','B')14:15_f: 2.826 x_('C','B')14:15_0 
   - 1.2 x_('C','B')14:15_f >= 0
 scale_constraint_('C','B')14:15_l: 1.475 x_('C','B')14:15_0 
   - 1.2 x_('C','B')14:15_l >= 0
 capacity_constraint_('B','C')12:25: 1.2 x_('B','C')12:25_f 
   + x_('B','C')12:25_l <= 187
 balance_constraint_('B','C')12:25: 3.7 x_('B','C')12:25_0 
   + 0.9 x_('B','C')12:25_f + 0.9 x_('B','C')12:25_l <= 39.79
 scale_constraint_('B','C')12:25_f: 3.079 x_('B','C')12:25_0 
   - 2 x_('B','C')12:25_f >= 0
 scale_constraint_('B','C')12:25_l: 1.652 x_('B','C')12:25_0 
   - 2 x_('B','C')12:25_l >= 0
 capacity_constraint_('C','B')16:55: 1.2 x_('C','B')16:55_f 
   + x_('C','B')16:55_l <= 187
 balance_constraint_('C','B')16:55: 1.72 x_('C','B')16:55_0 
   + 0.97 x_('C','B')16:55_f + 0.97 x_('C','B')16:55_l <= 4.4
 scale_constraint_('C','B')16:55_f: 2.826 x_('C','B')16:55_0 
   - 1.2 x_('C','B')16:55_f >= 0
 scale_constraint_('C','B')16:55_l: 1.475 x_('C','B')16:55_0 
   - 1.2 x_('C','B')16:55_l >= 0
 capacity_constraint_('A','B')19:10: 1.2 x_('A','B')19:10_f 
   + x_('A','B')19:10_l <= 187
 balance_constraint_('A','B')19:10: 4.92 x_('A','B')19:10_0 
   + 0.72 x_('A','B')19:10_f + 0.72 x_('A','B')19:10_l <= 141.78
 scale_constraint_('A','B')19:10_f: 1.624 x_('A','B')19:10_0 
   - 0.9 x_('A','B')19:10_f >= 0
 scale_constraint_('A','B')19:10_l: 0.793 x_('A','B')19:10_0 
   - 0.9 x_('A','B')19:10_l >= 0
 capacity_constraint_('C','A')16:55: 1.2 x_('C','A')16:55_f 
   + x_('C','A')16:55_l <= 187
 balance_constraint_('C','A')16:55: 1.72 x_('C','A')16:55_0 
   + 0.97 x_('C','A')16:55_f + 0.97 x_('C','A')16:55_l <= 173.79
 scale_constraint_('C','A')16:55_f: 2.826 x_('C','A')16:55_0 
   - 1.2 x_('C','A')16:55_f >= 0
 scale_constraint_('C','A')16:55_l: 1.475 x_('C','A')16:55_0 
   - 1.2 x_('C','A')16:55_l >= 0
 capacity_constraint_('A','B')22:45: 1.2 x_('A','B')22:45_f 
   + x_('A','B')22:45_l <= 187
 balance_constraint_('A','B')22:45: 4.92 x_('A','B')22:45_0 
   + 0.72 x_('A','B')22:45_f + 0.72 x_('A','B')22:45_l <= 159.14
 scale_constraint_('A','B')22:45_f: 2.671 x_('A','B')22:45_0 
   - 0.9 x_('A','B')22:45_f >= 0
 scale_constraint_('A','B')22:45_l: 1.303 x_('A','B')22:45_0 
   - 0.9 x_('A','B')22:45_l >= 0
 capacity_constraint_('A','B')11:20: 1.2 x_('A','B')11:20_f 
   + x_('A','B')11:20_l <= 187
 balance_constraint_('A','B')11:20: 4.92 x_('A','B')11:20_0 
   + 0.72 x_('A','B')11:20_f + 0.72 x_('A','B')11:20_l <= 179.35
 scale_constraint_('A','B')11:20_f: 2.05 x_('A','B')11:20_0 
   - 0.9 x_('A','B')11:20_f >= 0
 scale_constraint_('A','B')11:20_l: x_('A','B')11:20_0 
   - 0.9 x_('A','B')11:20_l >= 0
 capacity_constraint_('A','B')12:40: 1.2 x_('A','B')12:40_f 
   + x_('A','B')12:40_l <= 187
 balance_constraint_('A','B')12:40: 4.92 x_('A','B')12:40_0 
   + 0.72 x_('A','B')12:40_f + 0.72 x_('A','B')12:40_l <= 112.36
 scale_constraint_('A','B')12:40_f: 2.803 x_('A','B')12:40_0 
   - 0.9 x_('A','B')12:40_f >= 0
 scale_constraint_('A','B')12:40_l: 1.367 x_('A','B')12:40_0 
   - 0.9 x_('A','B')12:40_l >= 0
 capacity_constraint_('B','A')14:25: 1.2 x_('B','A')14:25_f 
   + x_('B','A')14:25_l <= 187
 balance_constraint_('B','A')14:25: 3.7 x_('B','A')14:25_0 
   + 0.9 x_('B','A')14:25_f + 0.9 x_('B','A')14:25_l <= 161.93
 scale_constraint_('B','A')14:25_f: 3.079 x_('B','A')14:25_0 
   - 2 x_('B','A')14:25_f >= 0
 scale_constraint_('B','A')14:25_l: 1.652 x_('B','A')14:25_0 
   - 2 x_('B','A')14:25_l >= 0
 capacity_constraint_('A','C')15:45: 1.2 x_('A','C')15:45_f 
   + x_('A','C')15:45_l <= 187
 balance_constraint_('A','C')15:45: 4.92 x_('A','C')15:45_0 
   + 0.72 x_('A','C')15:45_f + 0.72 x_('A','C')15:45_l <= 154.21
 scale_constraint_('A','C')15:45_f: 2.803 x_('A','C')15:45_0 
   - 0.9 x_('A','C')15:45_f >= 0
 scale_constraint_('A','C')15:45_l: 1.367 x_('A','C')15:45_0 
   - 0.9 x_('A','C')15:45_l >= 0
 capacity_constraint_('B','C')9:05: 1.2 x_('B','C')9:05_f 
   + x_('B','C')9:05_l <= 187
 balance_constraint_('B','C')9:05: 3.7 x_('B','C')9:05_0 
   + 0.9 x_('B','C')9:05_f + 0.9 x_('B','C')9:05_l <= 20.73
 scale_constraint_('B','C')9:05_f: 1.864 x_('B','C')9:05_0 
   - 2 x_('B','C')9:05_f >= 0
 scale_constraint_('B','C')9:05_l: x_('B','C')9:05_0 - 2 x_('B','C')9:05_l 
   >= 0
 capacity_constraint_('A','C')13:05: 1.2 x_('A','C')13:05_f 
   + x_('A','C')13:05_l <= 187
 balance_constraint_('A','C')13:05: 4.92 x_('A','C')13:05_0 
   + 0.72 x_('A','C')13:05_f + 0.72 x_('A','C')13:05_l <= 135.43
 scale_constraint_('A','C')13:05_f: 2.803 x_('A','C')13:05_0 
   - 0.9 x_('A','C')13:05_f >= 0
 scale_constraint_('A','C')13:05_l: 1.367 x_('A','C')13:05_0 
   - 0.9 x_('A','C')13:05_l >= 0
 capacity_constraint_('A','C')17:25: 1.2 x_('A','C')17:25_f 
   + x_('A','C')17:25_l <= 187
 balance_constraint_('A','C')17:25: 4.92 x_('A','C')17:25_0 
   + 0.72 x_('A','C')17:25_f + 0.72 x_('A','C')17:25_l <= 149.28
 scale_constraint_('A','C')17:25_f: 2.803 x_('A','C')17:25_0 
   - 0.9 x_('A','C')17:25_f >= 0
 scale_constraint_('A','C')17:25_l: 1.367 x_('A','C')17:25_0 
   - 0.9 x_('A','C')17:25_l >= 0
 capacity_constraint_('B','A')18:50: 1.2 x_('B','A')18:50_f 
   + x_('B','A')18:50_l <= 187
 balance_constraint_('B','A')18:50: 3.7 x_('B','A')18:50_0 
   + 0.9 x_('B','A')18:50_f + 0.9 x_('B','A')18:50_l <= 178.65
 scale_constraint_('B','A')18:50_f: 2.411 x_('B','A')18:50_0 
   - 2 x_('B','A')18:50_f >= 0
 scale_constraint_('B','A')18:50_l: 1.293 x_('B','A')18:50_0 
   - 2 x_('B','A')18:50_l >= 0
 capacity_constraint_('B','C')15:40: 1.2 x_('B','C')15:40_f 
   + x_('B','C')15:40_l <= 187
 balance_constraint_('B','C')15:40: 3.7 x_('B','C')15:40_0 
   + 0.9 x_('B','C')15:40_f + 0.9 x_('B','C')15:40_l <= 14.96
 scale_constraint_('B','C')15:40_f: 3.079 x_('B','C')15:40_0 
   - 2 x_('B','C')15:40_f >= 0
 scale_constraint_('B','C')15:40_l: 1.652 x_('B','C')15:40_0 
   - 2 x_('B','C')15:40_l >= 0
END

